n = 16;
cost = [8, 10, 25, 40, 74, 13, 31, 53, 75, 102, 25, 50, 100, 20, 40, 80];
damage = [4, 5, 6, 7, 8, 0, 0, 0, 0, 0, 1, 2, 3, 0, 0, 0];
armor = [0, 0, 0, 0, 0, 1, 2, 3, 4, 5, 0, 0, 0, 1, 2, 3];
bosshp = 109;
bossdamage = 8;
bossarmor = 2;